WARNING: for repeatability, setting FPU to use double precision
============================[ Problem Statistics ]=============================
|                                                                             |
|  Number of variables:            50                                         |
|  Number of clauses:             218                                         |
|  Parse time:                   0.00 s                                       |
|                                                                             |
============================[ Search Statistics ]==============================
| Conflicts |          ORIGINAL         |          LEARNT          | Progress |
|           |    Vars  Clauses Literals |    Limit  Clauses Lit/Cl |          |
===============================================================================
===============================================================================
restarts              : 1
conflicts             : 69             (46309 /sec)
decisions             : 72             (0.00 % random) (48322 /sec)
propagations          : 906            (608054 /sec)
conflict literals     : 255            (16.12 % deleted)
Memory used           : 20.00 MB
CPU time              : 0.00149 s

UNSATISFIABLE
